Version identifier: 22.1.0.0 | 2022-03-09 | 1a383f8ce
CPXPARAM_Threads                                 1
CPXPARAM_MIP_Strategy_VariableSelect             3
CPXPARAM_TimeLimit                               598.46711841599995
Tried aggregator 1 time.
MIP Presolve eliminated 13 rows and 0 columns.
MIP Presolve modified 1 coefficients.
Reduced MIP has 1182 rows, 4875 columns, and 54481 nonzeros.
Reduced MIP has 4875 binaries, 0 generals, 0 SOSs, and 0 indicators.
Presolve time = 0.03 sec. (26.50 ticks)
Probing time = 0.01 sec. (5.38 ticks)
Tried aggregator 1 time.
Detecting symmetries...
Reduced MIP has 1182 rows, 4875 columns, and 54481 nonzeros.
Reduced MIP has 4875 binaries, 0 generals, 0 SOSs, and 0 indicators.
Presolve time = 0.04 sec. (32.31 ticks)
Probing time = 0.01 sec. (5.38 ticks)
Clique table members: 779.
MIP emphasis: balance optimality and feasibility.
MIP search method: dynamic search.
Parallel mode: none, using 1 thread.
Root relaxation solution time = 0.43 sec. (465.61 ticks)

        Nodes                                         Cuts/
   Node  Left     Objective  IInf  Best Integer    Best Bound    ItCnt     Gap

      0     0        0.0000   820                      0.0000     2459         
      0     0        0.0000    45                  Cliques: 1     2466         
      0     0        0.0000   131                    Cuts: 16     3079         
      0     2        0.0000    23                      0.0000     3079         
Elapsed time = 10.32 sec. (11940.69 ticks, tree = 0.01 MB, solutions = 0)
      1     3        0.0000    12                      0.0000     6002         
*     2     1      integral     0        0.0000        0.0000     6182    0.00%

Clique cuts applied:  3
Zero-half cuts applied:  1

Root node processing (before b&c):
  Real time             =   10.28 sec. (11912.80 ticks)
Sequential b&c:
  Real time             =    0.73 sec. (793.20 ticks)
                          ------------
Total (root+branch&cut) =   11.01 sec. (12706.00 ticks)
Version identifier: 22.1.0.0 | 2022-03-09 | 1a383f8ce
CPXPARAM_Threads                                 1
CPXPARAM_MIP_Strategy_VariableSelect             3
CPXPARAM_TimeLimit                               587.42223192100005
Tried aggregator 1 time.
MIP Presolve eliminated 13 rows and 0 columns.
MIP Presolve modified 1 coefficients.
Reduced MIP has 1200 rows, 4950 columns, and 55330 nonzeros.
Reduced MIP has 4950 binaries, 0 generals, 0 SOSs, and 0 indicators.
Presolve time = 0.03 sec. (26.90 ticks)
Probing time = 0.01 sec. (5.43 ticks)
Tried aggregator 1 time.
Detecting symmetries...
Reduced MIP has 1200 rows, 4950 columns, and 55330 nonzeros.
Reduced MIP has 4950 binaries, 0 generals, 0 SOSs, and 0 indicators.
Presolve time = 0.04 sec. (32.84 ticks)
Probing time = 0.01 sec. (5.43 ticks)
Clique table members: 791.
MIP emphasis: balance optimality and feasibility.
MIP search method: dynamic search.
Parallel mode: none, using 1 thread.
Root relaxation solution time = 0.50 sec. (538.35 ticks)

        Nodes                                         Cuts/
   Node  Left     Objective  IInf  Best Integer    Best Bound    ItCnt     Gap

      0     0        0.0000   887                      0.0000     2788         
      0     0        0.0000   259                     Cuts: 3     3120         
      0     0        0.0000   464                    Cuts: 48     4650         
      0     2        0.0000    72                      0.0000     4650         
Elapsed time = 8.71 sec. (9373.57 ticks, tree = 0.01 MB, solutions = 0)
      1     3        0.0000   519                      0.0000    11167         
      3     5        0.0000   166                      0.0000    12799         
      4     6        0.0000   239                      0.0000    14670         
      5     7        0.0000   140                      0.0000    15228         
      6     8        0.0000   306                      0.0000    19258         
      7     9        0.0000   518                      0.0000    24535         
      9    11        0.0000   390                      0.0000    25192         
     10    12        0.0000   589                      0.0000    30628         
     12    14        0.0000   389                      0.0000    30753         
     13    15        0.0000   681                      0.0000    35824         
Elapsed time = 17.58 sec. (19011.99 ticks, tree = 0.05 MB, solutions = 0)
     14    16        0.0000   406                      0.0000    40298         
     16    18        0.0000   621                      0.0000    43645         
     18    20        0.0000   273                      0.0000    46570         
     20    22        0.0000   272                      0.0000    49762         
     21    23        0.0000   237                      0.0000    53522         
     23    25        0.0000   237                      0.0000    56742         
     28    30        0.0000   197                      0.0000    59301         
     32    34        0.0000   190                      0.0000    62338         
     35    37        0.0000   593                      0.0000    68523         
     39    41        0.0000   317                      0.0000    70306         
Elapsed time = 28.38 sec. (30471.77 ticks, tree = 0.10 MB, solutions = 0)
     42    43        0.0000   248                      0.0000    72469         
     45    46        0.0000   269                      0.0000    78160         
     49    50        0.0000   245                      0.0000    85087         
     52    53        0.0000   327                      0.0000    90965         
     57    58        0.0000   401                      0.0000   102168         
     62    63        0.0000   258                      0.0000   109012         
     67    67        0.0000   246                      0.0000   125564         
     70    70        0.0000   240                      0.0000   129152         
     73    73        0.0000   255                      0.0000   132416         
     75    75        0.0000   211                      0.0000   136185         
Elapsed time = 44.02 sec. (45540.62 ticks, tree = 0.51 MB, solutions = 0)
     78    78        0.0000   250                      0.0000   140467         
     80    80        0.0000   246                      0.0000   142990         
     83    82        0.0000   253                      0.0000   148283         
     87    84        0.0000   445                      0.0000   152693         
     92    87        0.0000   380                      0.0000   156595         
     97    90        0.0000   426                      0.0000   160514         
    102    95        0.0000   346                      0.0000   163434         
    107    99        0.0000   383                      0.0000   167475         
    113   101    infeasible                            0.0000   174035         
    119   103        0.0000   354                      0.0000   180669         
Elapsed time = 54.77 sec. (56272.73 ticks, tree = 0.81 MB, solutions = 0)
    125   109        0.0000   357                      0.0000   182427         
    132   114        0.0000   281                      0.0000   185692         
    142   117        0.0000   266                      0.0000   188927         
    154   117    infeasible                            0.0000   193081         
    164   121        0.0000   226                      0.0000   198529         
    173   120        0.0000   621                      0.0000   209373         
    176   123        0.0000   727                      0.0000   211250         
    180   127        0.0000   746                      0.0000   213083         
    184   131        0.0000   728                      0.0000   214435         
    186   133        0.0000   569                      0.0000   218789         
Elapsed time = 67.27 sec. (69365.56 ticks, tree = 1.17 MB, solutions = 0)
    187   134        0.0000   574                      0.0000   223531         
    189   136        0.0000   574                      0.0000   229886         
    192   139        0.0000   713                      0.0000   231561         
    195   142        0.0000   587                      0.0000   237051         
    197   144        0.0000   522                      0.0000   239844         
    199   146        0.0000   381                      0.0000   246383         
    200   147        0.0000   459                      0.0000   249325         
    204   151        0.0000   426                      0.0000   258299         
    208   155        0.0000   398                      0.0000   267131         
    213   160        0.0000   431                      0.0000   273945         
Elapsed time = 80.66 sec. (83288.49 ticks, tree = 1.45 MB, solutions = 0)
    219   165        0.0000   392                      0.0000   276811         
    221   167        0.0000   382                      0.0000   278257         
    226   172        0.0000   364                      0.0000   284568         
    231   177        0.0000   373                      0.0000   292362         
    236   182        0.0000   365                      0.0000   298358         
    241   187        0.0000   456                      0.0000   305074         
    247   193        0.0000   356                      0.0000   310762         
    253   199        0.0000   382                      0.0000   315220         
    259   205        0.0000   371                      0.0000   323023         
    265   210        0.0000   291                      0.0000   330951         
Elapsed time = 91.83 sec. (93736.13 ticks, tree = 2.05 MB, solutions = 0)
    271   216        0.0000   362                      0.0000   337471         
    278   223        0.0000   275                      0.0000   343286         
    283   228        0.0000   271                      0.0000   348035         
    290   235        0.0000   376                      0.0000   357045         
    296   241        0.0000   333                      0.0000   365806         
    302   247        0.0000   328                      0.0000   378436         
    308   253        0.0000   309                      0.0000   391530         
    313   258        0.0000   247                      0.0000   400785         
    318   263        0.0000   277                      0.0000   421026         
    321   266        0.0000   253                      0.0000   424267         
Elapsed time = 104.14 sec. (104665.53 ticks, tree = 2.70 MB, solutions = 0)
    326   271        0.0000   313                      0.0000   441705         
    331   276        0.0000   256                      0.0000   451984         
    338   283        0.0000   259                      0.0000   459501         
    344   287        0.0000   251                      0.0000   469435         
    350   293        0.0000   254                      0.0000   478303         
    358   299        0.0000   212                      0.0000   486641         
    368   302    infeasible                            0.0000   493509         
    380   302    infeasible                            0.0000   507243         
    391   304        0.0000   171                      0.0000   516607         
    400   304        0.0000   172                      0.0000   533144         
Elapsed time = 116.32 sec. (115106.36 ticks, tree = 3.15 MB, solutions = 0)
    409   307        0.0000   176                      0.0000   545164         
    416   309        0.0000   141                      0.0000   553323         
    425   308        0.0000   167                      0.0000   566189         
    434   308        0.0000   160                      0.0000   579748         
    444   308        0.0000   174                      0.0000   594812         
    452   311        0.0000   148                      0.0000   605847         
    464   306        0.0000   179                      0.0000   619296         
    470   307        0.0000   391                      0.0000   631223         
    475   311        0.0000   403                      0.0000   636187         
    494   327        0.0000   158                      0.0000   669350         
Elapsed time = 131.35 sec. (128201.26 ticks, tree = 3.42 MB, solutions = 0)
    532   326    infeasible                            0.0000   721776         
    564   322    infeasible                            0.0000   778228         
    575   333        0.0000   201                      0.0000   811305         
    596   350        0.0000   242                      0.0000   840628         
    615   368        0.0000   215                      0.0000   870966         
    637   384        0.0000   158                      0.0000   908950         
    662   405        0.0000   149                      0.0000   945844         
    699   415        0.0000    96                      0.0000   994063         
    733   419        0.0000    87                      0.0000  1047579         
    762   425        0.0000   161                      0.0000  1094743         
Elapsed time = 175.64 sec. (167129.80 ticks, tree = 4.55 MB, solutions = 0)
    800   431        0.0000   114                      0.0000  1132829         
    837   439        0.0000    76                      0.0000  1176090         
    876   446        0.0000    74                      0.0000  1228247         
    923   441    infeasible                            0.0000  1281666         
    960   448        0.0000   111                      0.0000  1330029         
   1004   450        0.0000    42                      0.0000  1376949         
   1045   451        0.0000   122                      0.0000  1433705         
   1078   459        0.0000    85                      0.0000  1481348         
   1124   460        0.0000    68                      0.0000  1530574         
   1165   459        0.0000   155                      0.0000  1582429         
Elapsed time = 221.95 sec. (205967.78 ticks, tree = 4.96 MB, solutions = 0)
   1207   464        0.0000    50                      0.0000  1629957         
   1259   455        0.0000   125                      0.0000  1680145         
   1307   448        0.0000    96                      0.0000  1739340         
   1353   449    infeasible                            0.0000  1787675         
   1388   454        0.0000    93                      0.0000  1841806         
   1428   451        0.0000   108                      0.0000  1897758         
   1467   456    infeasible                            0.0000  1952023         
   1499   463        0.0000    95                      0.0000  2009710         
   1546   467        0.0000    73                      0.0000  2063060         
   1594   472        0.0000    83                      0.0000  2116049         
Elapsed time = 268.14 sec. (244701.10 ticks, tree = 5.12 MB, solutions = 0)
   1645   463    infeasible                            0.0000  2175995         
   1690   466        0.0000   152                      0.0000  2221465         
   1729   473    infeasible                            0.0000  2262520         
   1770   478        0.0000    89                      0.0000  2315125         
   1806   484    infeasible                            0.0000  2367651         
   1853   482        0.0000   124                      0.0000  2414963         
   1902   480        0.0000   119                      0.0000  2462966         
   1947   481        0.0000   118                      0.0000  2507967         
   1988   487        0.0000   183                      0.0000  2555918         
   2034   484        0.0000    99                      0.0000  2610611         
Elapsed time = 314.10 sec. (283434.72 ticks, tree = 5.27 MB, solutions = 0)
   2080   485        0.0000   169                      0.0000  2660490         
   2129   485        0.0000   119                      0.0000  2708546         
   2166   501        0.0000   117                      0.0000  2750740         
   2193   511        0.0000   170                      0.0000  2802893         
   2236   512        0.0000   124                      0.0000  2852764         
   2271   518        0.0000    71                      0.0000  2910601         
   2304   519        0.0000    80                      0.0000  2966072         
   2342   518        0.0000    87                      0.0000  3030473         
   2377   515        0.0000   190                      0.0000  3089423         
   2420   518        0.0000   148                      0.0000  3134059         
Elapsed time = 360.50 sec. (322669.29 ticks, tree = 5.66 MB, solutions = 0)
   2465   518        0.0000   123                      0.0000  3184455         
   2507   518    infeasible                            0.0000  3235672         
   2545   528        0.0000    85                      0.0000  3286280         
   2592   530        0.0000    78                      0.0000  3340253         
   2648   535        0.0000   115                      0.0000  3384472         

Performing restart 1

Repeating presolve.
Tried aggregator 1 time.
MIP Presolve modified 14700 coefficients.
Reduced MIP has 1200 rows, 4950 columns, and 53566 nonzeros.
Reduced MIP has 4950 binaries, 0 generals, 0 SOSs, and 0 indicators.
Presolve time = 0.05 sec. (53.40 ticks)
Tried aggregator 1 time.
Reduced MIP has 1200 rows, 4950 columns, and 53566 nonzeros.
Reduced MIP has 4950 binaries, 0 generals, 0 SOSs, and 0 indicators.
Presolve time = 0.04 sec. (33.41 ticks)
Represolve time = 0.30 sec. (209.02 ticks)
   2694     0        0.0000   223                     Cuts: 2  3428119         
   2694     0        0.0000   336                   Cuts: 147  3430176         
   2694     0        0.0000   488                  Cliques: 1  3431740         
   2694     2        0.0000    81                      0.0000  3431740         
   2699     7        0.0000   546                      0.0000  3444702         
   2707    15        0.0000   491                      0.0000  3456586         
   2715    23        0.0000   307                      0.0000  3465484         
   2728    36        0.0000   416                      0.0000  3482052         
Elapsed time = 420.87 sec. (380624.26 ticks, tree = 0.32 MB, solutions = 0)
   2745    52        0.0000   408                      0.0000  3496076         
   2762    69        0.0000   462                      0.0000  3513072         
   2779    85        0.0000   345                      0.0000  3531462         
   2795   101        0.0000   421                      0.0000  3553380         
   2812   117        0.0000   341                      0.0000  3573975         
   2827   132        0.0000   291                      0.0000  3596568         
   2846   151        0.0000   279                      0.0000  3616580         
   2863   166        0.0000   267                      0.0000  3639569         
   2883   183        0.0000   253                      0.0000  3675805         
   2908   191        0.0000   192                      0.0000  3721258         
Elapsed time = 461.94 sec. (420201.23 ticks, tree = 2.10 MB, solutions = 0)
   2938   196    infeasible                            0.0000  3766246         
   2969   200        0.0000   150                      0.0000  3816554         
   3005   198    infeasible                            0.0000  3863442         
   3035   204    infeasible                            0.0000  3917953         
   3068   205        0.0000   220                      0.0000  3970161         
   3101   204        0.0000   203                      0.0000  4029398         
   3142   205    infeasible                            0.0000  4084230         
   3174   203        0.0000   199                      0.0000  4114964         
   3214   199    infeasible                            0.0000  4170783         
   3257   208        0.0000   128                      0.0000  4212608         
Elapsed time = 507.31 sec. (459327.69 ticks, tree = 2.30 MB, solutions = 0)
   3297   208        0.0000   113                      0.0000  4262967         
   3340   211        0.0000    92                      0.0000  4305991         
   3376   209        0.0000   108                      0.0000  4358963         
   3422   209        0.0000   132                      0.0000  4408832         
   3469   206        0.0000   153                      0.0000  4463236         
   3510   207        0.0000   118                      0.0000  4515958         
   3545   212    infeasible                            0.0000  4567406         
   3590   211        0.0000   129                      0.0000  4620422         

Performing restart 2

Repeating presolve.
Tried aggregator 1 time.
Reduced MIP has 1200 rows, 4950 columns, and 53566 nonzeros.
Reduced MIP has 4950 binaries, 0 generals, 0 SOSs, and 0 indicators.
Presolve time = 0.03 sec. (25.62 ticks)
Tried aggregator 1 time.
Reduced MIP has 1200 rows, 4950 columns, and 53566 nonzeros.
Reduced MIP has 4950 binaries, 0 generals, 0 SOSs, and 0 indicators.
Presolve time = 0.04 sec. (33.41 ticks)
Represolve time = 0.69 sec. (323.29 ticks)
   3592     0        0.0000   169                 ZeroHalf: 4  4624389         
   3592     0        0.0000   252                    Cuts: 93  4625471         
   3592     0        0.0000   439                     Cuts: 3  4627552         
   3592     2        0.0000    62                      0.0000  4627552         

Clique cuts applied:  1
Zero-half cuts applied:  3
Gomory fractional cuts applied:  1

Root node processing (before b&c):
  Real time             =    8.65 sec. (9326.00 ticks)
Sequential b&c:
  Real time             =  578.77 sec. (527176.18 ticks)
                          ------------
Total (root+branch&cut) =  587.42 sec. (536502.18 ticks)
Primal:	195
Dual:	200
Status:	Feasible
Time:	598.495
Sequence:
	0
